(declare-const a Real)
(declare-const b Real)
(declare-const c Real)
(assert (= (* a b c) 1))
(assert (> a 0))
(assert (> b 0))
(assert (> c 0))
(assert (not (<= (+ (* -35808 (pow b 4)) (* -25824 (pow a 4)) (* (pow (+ 8424 (* 1404 (pow a 4)) (* 1404 (pow b 4)) (* 15216 b (pow a 3)) (* 41472 (pow a (/ 5 3)) (pow b (/ 7 3)))) -1) (pow (+ (* 1404 (pow a 4)) (* 1404 (pow b 4)) (* 8424 a b) (* 15216 b (pow a 3)) (* 41472 (pow a (/ 5 3)) (pow b (/ 7 3)))) 2)) (* -55296 (pow a (pow 3 -1)) (pow b (/ 11 3))) (* -27648 (pow a (/ 10 3)) (pow b (/ 2 3))) (* 76656 a (pow b 3))) 0)))
(check-sat)
(get-model)
(exit)